143801
72,1,32,81,50,71,44,24,61,21,85,45,76,20,16,89,63,15,19,55,39,5,68,87,12,30,64,51,4,29,28,54,96,7,105,97,8,91,22,56,79,88,11,92,75,27,26,9,58,65,43,86,0,57,42,78,90,14,3,102,60,46,13,101,23,73,82,33,25,49,67,98,18,41,80,99,34,74,31,62,52,83,38,48,6,17,69,36,35,70,53,94,37,100,2,93,77,95,59,104,103,66,40,10,84,47
